13
-1 320 142 205 78 275 251 328 230 104 186 141 395 
320 -1 337 282 361 51 336 347 544 419 496 453 121 
142 337 -1 94 218 285 117 457 316 154 197 246 442 
205 282 94 -1 283 232 61 477 406 244 291 330 398 
78 361 218 283 -1 322 329 286 185 124 198 95 417 
275 51 285 232 322 -1 287 347 503 372 448 411 166 
251 336 117 61 329 287 -1 538 431 269 302 364 454 
328 347 457 477 286 347 538 -1 425 410 484 359 308 
230 544 316 406 185 503 431 425 -1 162 152 91 602 
104 419 154 244 124 372 269 410 162 -1 82 100 499 
186 496 197 291 198 448 302 484 152 82 -1 138 580 
141 453 246 330 95 411 364 359 91 100 138 -1 512 
395 121 442 398 417 166 454 308 602 499 580 512 -1 
